100
32
7
1
20
4
4
2
4
2
7
6
1
1
1
18
1
3
16
8
9
19
18
8
8
8
26
10
17
2
3
17
2
1
3
5
3
3
2
1
20
6
1
3
2
18
2
17
5
5
3
3
2
17
9
1
4
18
1
1
1
5
6
1
4
4
18
6
5
1
2
3
20
1
4
1
1
1
4
1
2
1
1
16
1
4
5
17
8
1
5
3
4
23
3
1
2
2
2
2
1
1